100
32
19
24
4
17
16
5
9
18
1
3
11
9
1
24
11
28
29
28
27
9
5
5
19
1
2
18
2
3
1
1
2
20
1
1
1
2
1
2
16
3
1
1
1
2
1
1
3
3
1
1
4
3
2
1
2
3
1
2
3
1
17
8
4
3
1
1
18
3
3
1
3
2
2
2
2
2
17
2
1
2
1
1
1
1
2
3
1
1
2
1
3
2
1
2
1
1
1
1
17
1